800
38550.0 155286.5
9784.0 159700.6
1213.0 159995.4
989.0 159996.9
983.0 159997.0
970.0 159997.1
969.0 159997.1
965.0 159997.1
960.0 159997.1
956.0 159997.1
955.0 159997.1
951.0 159997.2
939.0 159997.2
937.0 159997.3
927.0 159997.3
926.0 159997.3
921.0 159997.3
914.0 159997.4
907.0 159997.4
901.0 159997.5
895.0 159997.5
893.0 159997.5
888.0 159997.5
882.0 159997.6
880.0 159997.6
870.0 159997.6
865.0 159997.7
864.0 159997.7
860.0 159997.7
859.0 159997.7
846.0 159997.8
842.0 159997.8
837.0 159997.8
830.0 159997.8
829.0 159997.9
827.0 159997.9
823.0 159997.9
815.0 159997.9
805.0 159998.0
801.0 159998.0
795.0 159998.0
790.0 159998.0
788.0 159998.1
784.0 159998.1
779.0 159998.1
771.0 159998.1
768.0 159998.2
763.0 159998.2
762.0 159998.2
758.0 159998.2
749.0 159998.2
743.0 159998.3
738.0 159998.3
731.0 159998.3
730.0 159998.3
722.0 159998.4
716.0 159998.4
712.0 159998.4
706.0 159998.4
703.0 159998.5
701.0 159998.5
700.0 159998.5
690.0 159998.5
683.0 159998.5
675.0 159998.6
670.0 159998.6
668.0 159998.6
660.0 159998.6
656.0 159998.7
652.0 159998.7
650.0 159998.7
641.0 159998.7
636.0 159998.7
634.0 159998.7
632.0 159998.8
625.0 159998.8
616.0 159998.8
610.0 159998.8
607.0 159998.8
601.0 159998.9
595.0 159998.9
591.0 159998.9
588.0 159998.9
586.0 159998.9
575.0 159999.0
571.0 159999.0
567.0 159999.0
565.0 159999.0
559.0 159999.0
555.0 159999.0
552.0 159999.0
540.0 159999.1
537.0 159999.1
534.0 159999.1
533.0 159999.1
529.0 159999.1
522.0 159999.1
517.0 159999.2
509.0 159999.2
503.0 159999.2
502.0 159999.2
491.0 159999.2
486.0 159999.3
481.0 159999.3
479.0 159999.3
477.0 159999.3
467.0 159999.3
465.0 159999.3
463.0 159999.3
452.0 159999.4
445.0 159999.4
442.0 159999.4
435.0 159999.4
431.0 159999.4
429.0 159999.4
426.0 159999.4
417.0 159999.5
410.0 159999.5
409.0 159999.5
407.0 159999.5
396.0 159999.5
392.0 159999.5
386.0 159999.5
381.0 159999.5
378.0 159999.6
373.0 159999.6
372.0 159999.6
366.0 159999.6
363.0 159999.6
357.0 159999.6
355.0 159999.6
354.0 159999.6
344.0 159999.6
339.0 159999.6
334.0 159999.7
326.0 159999.7
317.0 159999.7
313.0 159999.7
312.0 159999.7
302.0 159999.7
297.0 159999.7
294.0 159999.7
285.0 159999.7
282.0 159999.8
280.0 159999.8
270.0 159999.8
265.0 159999.8
260.0 159999.8
256.0 159999.8
255.0 159999.8
250.0 159999.8
241.0 159999.8
237.0 159999.8
233.0 159999.8
232.0 159999.8
223.0 159999.8
216.0 159999.9
211.0 159999.9
207.0 159999.9
206.0 159999.9
205.0 159999.9
190.0 159999.9
189.0 159999.9
183.0 159999.9
176.0 159999.9
175.0 159999.9
166.0 159999.9
165.0 159999.9
159.0 159999.9
151.0 159999.9
145.0 159999.9
141.0 159999.9
139.0 159999.9
132.0 159999.9
128.0 159999.9
125.0 160000.0
124.0 160000.0
118.0 160000.0
113.0 160000.0
101.0 160000.0
98.0 160000.0
95.0 160000.0
92.0 160000.0
89.0 160000.0
83.0 160000.0
75.0 160000.0
71.0 160000.0
63.0 160000.0
61.0 160000.0
55.0 160000.0
46.0 160000.0
42.0 160000.0
37.0 160000.0
33.0 160000.0
25.0 160000.0
23.0 160000.0
15.0 160000.0
11.0 160000.0
6.0 160000.0
4.0 160000.0
-4.0 160000.0
-8.0 160000.0
-11.0 160000.0
-15.0 160000.0
-21.0 160000.0
-25.0 160000.0
-35.0 160000.0
-41.0 160000.0
-42.0 160000.0
-49.0 160000.0
-55.0 160000.0
-58.0 160000.0
-61.0 160000.0
-71.0 160000.0
-81.0 160000.0
-87.0 160000.0
-88.0 160000.0
-90.0 160000.0
-91.0 160000.0
-103.0 160000.0
-104.0 160000.0
-106.0 160000.0
-111.0 160000.0
-119.0 160000.0
-125.0 160000.0
-126.0 160000.0
-131.0 159999.9
-144.0 159999.9
-145.0 159999.9
-147.0 159999.9
-151.0 159999.9
-159.0 159999.9
-166.0 159999.9
-168.0 159999.9
-173.0 159999.9
-176.0 159999.9
-188.0 159999.9
-192.0 159999.9
-195.0 159999.9
-198.0 159999.9
-201.0 159999.9
-206.0 159999.9
-222.0 159999.8
-227.0 159999.8
-233.0 159999.8
-234.0 159999.8
-239.0 159999.8
-240.0 159999.8
-246.0 159999.8
-248.0 159999.8
-259.0 159999.8
-261.0 159999.8
-263.0 159999.8
-265.0 159999.8
-271.0 159999.8
-281.0 159999.8
-282.0 159999.8
-290.0 159999.7
-293.0 159999.7
-300.0 159999.7
-303.0 159999.7
-306.0 159999.7
-310.0 159999.7
-315.0 159999.7
-321.0 159999.7
-330.0 159999.7
-334.0 159999.7
-345.0 159999.6
-346.0 159999.6
-348.0 159999.6
-351.0 159999.6
-355.0 159999.6
-364.0 159999.6
-369.0 159999.6
-372.0 159999.6
-375.0 159999.6
-385.0 159999.5
-389.0 159999.5
-393.0 159999.5
-398.0 159999.5
-400.0 159999.5
-406.0 159999.5
-412.0 159999.5
-421.0 159999.4
-422.0 159999.4
-425.0 159999.4
-437.0 159999.4
-438.0 159999.4
-442.0 159999.4
-449.0 159999.4
-451.0 159999.4
-457.0 159999.3
-462.0 159999.3
-465.0 159999.3
-471.0 159999.3
-479.0 159999.3
-483.0 159999.3
-485.0 159999.3
-492.0 159999.2
-500.0 159999.2
-503.0 159999.2
-505.0 159999.2
-515.0 159999.2
-519.0 159999.2
-523.0 159999.1
-530.0 159999.1
-534.0 159999.1
-542.0 159999.1
-545.0 159999.1
-554.0 159999.0
-557.0 159999.0
-558.0 159999.0
-563.0 159999.0
-566.0 159999.0
-580.0 159998.9
-589.0 159998.9
-591.0 159998.9
-594.0 159998.9
-595.0 159998.9
-597.0 159998.9
-609.0 159998.8
-613.0 159998.8
-622.0 159998.8
-624.0 159998.8
-626.0 159998.8
-629.0 159998.8
-635.0 159998.7
-640.0 159998.7
-641.0 159998.7
-647.0 159998.7
-653.0 159998.7
-656.0 159998.7
-661.0 159998.6
-679.0 159998.6
-682.0 159998.5
-684.0 159998.5
-687.0 159998.5
-692.0 159998.5
-697.0 159998.5
-709.0 159998.4
-710.0 159998.4
-712.0 159998.4
-713.0 159998.4
-718.0 159998.4
-720.0 159998.4
-729.0 159998.3
-731.0 159998.3
-735.0 159998.3
-744.0 159998.3
-749.0 159998.2
-752.0 159998.2
-755.0 159998.2
-765.0 159998.2
-770.0 159998.1
-772.0 159998.1
-775.0 159998.1
-783.0 159998.1
-788.0 159998.1
-794.0 159998.0
-804.0 159998.0
-805.0 159998.0
-808.0 159998.0
-811.0 159997.9
-823.0 159997.9
-827.0 159997.9
-828.0 159997.9
-836.0 159997.8
-838.0 159997.8
-840.0 159997.8
-846.0 159997.8
-853.0 159997.7
-858.0 159997.7
-861.0 159997.7
-865.0 159997.7
-879.0 159997.6
-881.0 159997.6
-885.0 159997.6
-886.0 159997.5
-898.0 159997.5
-899.0 159997.5
-900.0 159997.5
-908.0 159997.4
-911.0 159997.4
-919.0 159997.4
-926.0 159997.3
-929.0 159997.3
-940.0 159997.2
-945.0 159997.2
-949.0 159997.2
-1195.0 159995.5
-2743.0 159976.5
-3092.0 159970.1
-3179.0 159968.4
-3961.0 159951.0
-4150.0 159946.2
-11518.0 159584.9
-14102.0 159377.3
-16423.0 159154.9
-23682.0 158237.7
-80413.0 138324.8
-24796.0 -158066.9
-3149.0 -159969.0
-2446.0 -159981.3
-2346.0 -159982.8
-1440.0 -159993.5
-1415.0 -159993.7
-1066.0 -159996.4
-1055.0 -159996.5
-998.0 -159996.9
-962.0 -159997.1
-948.0 -159997.2
-947.0 -159997.2
-941.0 -159997.2
-934.0 -159997.3
-925.0 -159997.3
-921.0 -159997.3
-917.0 -159997.4
-911.0 -159997.4
-907.0 -159997.4
-901.0 -159997.5
-897.0 -159997.5
-891.0 -159997.5
-886.0 -159997.5
-884.0 -159997.6
-877.0 -159997.6
-873.0 -159997.6
-866.0 -159997.7
-862.0 -159997.7
-859.0 -159997.7
-851.0 -159997.7
-849.0 -159997.7
-843.0 -159997.8
-842.0 -159997.8
-835.0 -159997.8
-827.0 -159997.9
-820.0 -159997.9
-817.0 -159997.9
-815.0 -159997.9
-806.0 -159998.0
-800.0 -159998.0
-798.0 -159998.0
-793.0 -159998.0
-788.0 -159998.1
-784.0 -159998.1
-783.0 -159998.1
-774.0 -159998.1
-766.0 -159998.2
-764.0 -159998.2
-758.0 -159998.2
-754.0 -159998.2
-745.0 -159998.3
-744.0 -159998.3
-742.0 -159998.3
-740.0 -159998.3
-733.0 -159998.3
-732.0 -159998.3
-715.0 -159998.4
-712.0 -159998.4
-705.0 -159998.4
-704.0 -159998.5
-703.0 -159998.5
-694.0 -159998.5
-693.0 -159998.5
-686.0 -159998.5
-683.0 -159998.5
-675.0 -159998.6
-671.0 -159998.6
-660.0 -159998.6
-657.0 -159998.7
-651.0 -159998.7
-646.0 -159998.7
-641.0 -159998.7
-639.0 -159998.7
-630.0 -159998.8
-629.0 -159998.8
-626.0 -159998.8
-617.0 -159998.8
-610.0 -159998.8
-609.0 -159998.8
-603.0 -159998.9
-595.0 -159998.9
-594.0 -159998.9
-589.0 -159998.9
-588.0 -159998.9
-581.0 -159998.9
-578.0 -159999.0
-572.0 -159999.0
-560.0 -159999.0
-558.0 -159999.0
-557.0 -159999.0
-556.0 -159999.0
-546.0 -159999.1
-545.0 -159999.1
-538.0 -159999.1
-530.0 -159999.1
-526.0 -159999.1
-521.0 -159999.2
-519.0 -159999.2
-509.0 -159999.2
-508.0 -159999.2
-498.0 -159999.2
-492.0 -159999.2
-488.0 -159999.3
-484.0 -159999.3
-476.0 -159999.3
-474.0 -159999.3
-465.0 -159999.3
-461.0 -159999.3
-458.0 -159999.3
-455.0 -159999.4
-448.0 -159999.4
-446.0 -159999.4
-436.0 -159999.4
-433.0 -159999.4
-429.0 -159999.4
-424.0 -159999.4
-418.0 -159999.5
-410.0 -159999.5
-405.0 -159999.5
-404.0 -159999.5
-403.0 -159999.5
-400.0 -159999.5
-390.0 -159999.5
-386.0 -159999.5
-380.0 -159999.5
-374.0 -159999.6
-365.0 -159999.6
-360.0 -159999.6
-356.0 -159999.6
-352.0 -159999.6
-349.0 -159999.6
-343.0 -159999.6
-341.0 -159999.6
-338.0 -159999.6
-327.0 -159999.7
-323.0 -159999.7
-316.0 -159999.7
-313.0 -159999.7
-307.0 -159999.7
-305.0 -159999.7
-303.0 -159999.7
-291.0 -159999.7
-287.0 -159999.7
-285.0 -159999.7
-284.0 -159999.7
-272.0 -159999.8
-266.0 -159999.8
-264.0 -159999.8
-260.0 -159999.8
-259.0 -159999.8
-252.0 -159999.8
-244.0 -159999.8
-242.0 -159999.8
-233.0 -159999.8
-225.0 -159999.8
-222.0 -159999.8
-217.0 -159999.9
-212.0 -159999.9
-205.0 -159999.9
-200.0 -159999.9
-199.0 -159999.9
-194.0 -159999.9
-186.0 -159999.9
-182.0 -159999.9
-181.0 -159999.9
-173.0 -159999.9
-167.0 -159999.9
-166.0 -159999.9
-160.0 -159999.9
-159.0 -159999.9
-148.0 -159999.9
-144.0 -159999.9
-136.0 -159999.9
-131.0 -159999.9
-130.0 -159999.9
-123.0 -160000.0
-121.0 -160000.0
-118.0 -160000.0
-106.0 -160000.0
-103.0 -160000.0
-96.0 -160000.0
-94.0 -160000.0
-93.0 -160000.0
-91.0 -160000.0
-89.0 -160000.0
-86.0 -160000.0
-68.0 -160000.0
-67.0 -160000.0
-55.0 -160000.0
-52.0 -160000.0
-46.0 -160000.0
-42.0 -160000.0
-38.0 -160000.0
-32.0 -160000.0
-28.0 -160000.0
-20.0 -160000.0
-19.0 -160000.0
-12.0 -160000.0
-5.0 -160000.0
-1.0 -160000.0
3.0 -160000.0
11.0 -160000.0
13.0 -160000.0
17.0 -160000.0
20.0 -160000.0
34.0 -160000.0
37.0 -160000.0
39.0 -160000.0
45.0 -160000.0
48.0 -160000.0
53.0 -160000.0
55.0 -160000.0
64.0 -160000.0
68.0 -160000.0
81.0 -160000.0
82.0 -160000.0
84.0 -160000.0
85.0 -160000.0
94.0 -160000.0
104.0 -160000.0
106.0 -160000.0
107.0 -160000.0
113.0 -160000.0
124.0 -160000.0
128.0 -159999.9
129.0 -159999.9
142.0 -159999.9
150.0 -159999.9
153.0 -159999.9
154.0 -159999.9
166.0 -159999.9
168.0 -159999.9
178.0 -159999.9
179.0 -159999.9
182.0 -159999.9
183.0 -159999.9
186.0 -159999.9
194.0 -159999.9
197.0 -159999.9
199.0 -159999.9
203.0 -159999.9
209.0 -159999.9
215.0 -159999.9
218.0 -159999.9
224.0 -159999.8
229.0 -159999.8
236.0 -159999.8
241.0 -159999.8
244.0 -159999.8
251.0 -159999.8
255.0 -159999.8
256.0 -159999.8
266.0 -159999.8
269.0 -159999.8
275.0 -159999.8
287.0 -159999.7
289.0 -159999.7
290.0 -159999.7
293.0 -159999.7
295.0 -159999.7
301.0 -159999.7
305.0 -159999.7
326.0 -159999.7
327.0 -159999.7
328.0 -159999.7
331.0 -159999.7
334.0 -159999.7
339.0 -159999.6
345.0 -159999.6
349.0 -159999.6
355.0 -159999.6
359.0 -159999.6
368.0 -159999.6
370.0 -159999.6
372.0 -159999.6
377.0 -159999.6
384.0 -159999.5
387.0 -159999.5
393.0 -159999.5
401.0 -159999.5
406.0 -159999.5
409.0 -159999.5
420.0 -159999.4
422.0 -159999.4
425.0 -159999.4
431.0 -159999.4
433.0 -159999.4
437.0 -159999.4
442.0 -159999.4
451.0 -159999.4
455.0 -159999.4
459.0 -159999.3
466.0 -159999.3
473.0 -159999.3
474.0 -159999.3
476.0 -159999.3
482.0 -159999.3
486.0 -159999.3
498.0 -159999.2
501.0 -159999.2
502.0 -159999.2
510.0 -159999.2
513.0 -159999.2
515.0 -159999.2
520.0 -159999.2
525.0 -159999.1
530.0 -159999.1
541.0 -159999.1
543.0 -159999.1
551.0 -159999.1
554.0 -159999.0
556.0 -159999.0
565.0 -159999.0
580.0 -159998.9
582.0 -159998.9
583.0 -159998.9
584.0 -159998.9
594.0 -159998.9
596.0 -159998.9
600.0 -159998.9
604.0 -159998.9
611.0 -159998.8
612.0 -159998.8
620.0 -159998.8
628.0 -159998.8
631.0 -159998.8
640.0 -159998.7
646.0 -159998.7
647.0 -159998.7
649.0 -159998.7
650.0 -159998.7
656.0 -159998.7
666.0 -159998.6
669.0 -159998.6
671.0 -159998.6
675.0 -159998.6
692.0 -159998.5
693.0 -159998.5
694.0 -159998.5
695.0 -159998.5
700.0 -159998.5
707.0 -159998.4
711.0 -159998.4
721.0 -159998.4
722.0 -159998.4
728.0 -159998.3
730.0 -159998.3
737.0 -159998.3
746.0 -159998.3
750.0 -159998.2
758.0 -159998.2
760.0 -159998.2
768.0 -159998.2
771.0 -159998.1
775.0 -159998.1
776.0 -159998.1
782.0 -159998.1
785.0 -159998.1
793.0 -159998.0
798.0 -159998.0
807.0 -159998.0
810.0 -159997.9
815.0 -159997.9
818.0 -159997.9
826.0 -159997.9
830.0 -159997.8
834.0 -159997.8
838.0 -159997.8
849.0 -159997.7
850.0 -159997.7
852.0 -159997.7
858.0 -159997.7
868.0 -159997.6
872.0 -159997.6
873.0 -159997.6
877.0 -159997.6
884.0 -159997.6
889.0 -159997.5
897.0 -159997.5
899.0 -159997.5
909.0 -159997.4
910.0 -159997.4
914.0 -159997.4
921.0 -159997.3
923.0 -159997.3
925.0 -159997.3
931.0 -159997.3
940.0 -159997.2
942.0 -159997.2
946.0 -159997.2
959.0 -159997.1
968.0 -159997.1
1175.0 -159995.7
1384.0 -159994.0
3901.0 -159952.4
8347.0 -159782.1
16494.0 -159147.6
30044.0 -157153.9
80975.0 -137996.6
100939.0 -124142.3
